public key:[8458052760209025944051188119312858999340184518490703287975295230234781434168873800350879265473776219634691790869640204567233757831109921794737457564595795, 1306285802352898547169773749883374329267012549880808570041281751726091147666682109341878829084714291736200662300791211972270430125917090219934997532607604]